;symbolic execution tree
(push)
(assert (le x0 java.lang.Object))
(check-sat)
(push)
(assert (le x1 java.lang.Object))
(check-sat)
(push)
(assert (le x2 java.lang.Object))
(check-sat)
(push)
(assert (le x3 java.lang.Object))
(check-sat)
(push)
(assert (le x4 java.lang.Object))
(check-sat)
(push)
(assert (le x5 java.lang.Object))
(check-sat)
(push)
(assert (le x6 java.lang.Object))
(check-sat)
(push)
(assert (le x7 java.lang.Object))
(check-sat)
(push)
(assert (le x2 weka.classifiers.trees.j48.Distribution))
(check-sat)
(push)
(assert (= x3 java.lang.String))
(check-sat)
(pop)
(push)
(assert (not (= x3 java.lang.String)))
(check-sat)
(pop)
(push)
(assert (= x6 java.lang.String))
(check-sat)
(pop)
(push)
(assert (not (= x6 java.lang.String)))
(check-sat)
(push)
(assert (le x4 weka.classifiers.trees.m5.RuleNode))
(check-sat)
(push)
(assert (le x5 weka.core.Instances))
(check-sat)
(pop)
(push)
(assert (not (le x5 weka.core.Instances)))
(check-sat)
(pop)
(push)
(assert (le x7 weka.core.Instance))
(check-sat)
(pop)
(push)
(assert (not (le x7 weka.core.Instance)))
(check-sat)
(pop)
(pop)
(push)
(assert (not (le x4 weka.classifiers.trees.m5.RuleNode)))
(check-sat)
(pop)
(pop)
(push)
(assert (le x4 weka.core.FastVector))
(check-sat)
(push)
(assert (= x3 java.lang.StringBuffer))
(check-sat)
(push)
(assert (le x4 weka.core.FastVector))
(check-sat)
(push)
(assert (= x3 java.lang.StringBuffer))
(check-sat)
(pop)
(push)
(assert (not (= x3 java.lang.StringBuffer)))
(check-sat)
(pop)
(push)
(assert (= x1 java.lang.StringBuilder))
(check-sat)
(pop)
(push)
(assert (not (= x1 java.lang.StringBuilder)))
(check-sat)
(pop)
(push)
(assert (le x4 weka.core.FastVector))
(check-sat)
(pop)
(push)
(assert (not (le x4 weka.core.FastVector)))
(check-sat)
(pop)
(pop)
(push)
(assert (not (le x4 weka.core.FastVector)))
(check-sat)
(pop)
(pop)
(push)
(assert (not (= x3 java.lang.StringBuffer)))
(check-sat)
(pop)
(push)
(assert (le x2 weka.classifiers.trees.j48.Distribution))
(check-sat)
(pop)
(push)
(assert (not (le x2 weka.classifiers.trees.j48.Distribution)))
(check-sat)
(pop)
(push)
(assert (le x4 weka.core.FastVector))
(check-sat)
(push)
(assert (le x3 weka.classifiers.trees.m5.PreConstructedLinearModel))
(check-sat)
(pop)
(push)
(assert (not (le x3 weka.classifiers.trees.m5.PreConstructedLinearModel)))
(check-sat)
(pop)
(push)
(assert (le x0 weka.core.Instances))
(check-sat)
(pop)
(push)
(assert (not (le x0 weka.core.Instances)))
(check-sat)
(pop)
(pop)
(push)
(assert (not (le x4 weka.core.FastVector)))
(check-sat)
(pop)
(push)
(assert (le x0 weka.core.Queue_currencysign_QueueNode))
(check-sat)
(pop)
(push)
(assert (not (le x0 weka.core.Queue_currencysign_QueueNode)))
(check-sat)
(pop)
(push)
(assert (le x1 weka.core.Instance))
(check-sat)
(push)
(assert (= x5 java.lang.Boolean))
(check-sat)
(push)
(assert (le x0 java.util.Vector))
(check-sat)
(pop)
(push)
(assert (not (le x0 java.util.Vector)))
(check-sat)
(pop)
(pop)
(push)
(assert (not (= x5 java.lang.Boolean)))
(check-sat)
(pop)
(pop)
(push)
(assert (not (le x1 weka.core.Instance)))
(check-sat)
(pop)
(push)
(assert (= x6 java.lang.Boolean))
(check-sat)
(pop)
(push)
(assert (not (= x6 java.lang.Boolean)))
(check-sat)
(pop)
(push)
(assert (le x0 weka.core.Instance))
(check-sat)
(pop)
(push)
(assert (not (le x0 weka.core.Instance)))
(check-sat)
(pop)
(push)
(assert (le x7 java.util.Vector))
(check-sat)
(pop)
(push)
(assert (not (le x7 java.util.Vector)))
(check-sat)
(pop)
(pop)
(push)
(assert (not (le x4 weka.core.FastVector)))
(check-sat)
(pop)
(pop)
(push)
(assert (not (le x2 weka.classifiers.trees.j48.Distribution)))
(check-sat)
(push)
(assert (le x0 weka.core.Instances))
(check-sat)
(push)
(assert (= x1 java.lang.String))
(check-sat)
(pop)
(push)
(assert (not (= x1 java.lang.String)))
(check-sat)
(push)
(assert (= x1 java.lang.String))
(check-sat)
(pop)
(push)
(assert (not (= x1 java.lang.String)))
(check-sat)
(pop)
(push)
(assert (le x0 weka.core.Instances))
(check-sat)
(pop)
(push)
(assert (not (le x0 weka.core.Instances)))
(check-sat)
(pop)
(pop)
(push)
(assert (le x2 weka.classifiers.trees.j48.Distribution))
(check-sat)
(pop)
(push)
(assert (not (le x2 weka.classifiers.trees.j48.Distribution)))
(check-sat)
(push)
(assert (le x3 java.util.Vector))
(check-sat)
(push)
(assert (= x7 java.lang.String))
(check-sat)
(pop)
(push)
(assert (not (= x7 java.lang.String)))
(check-sat)
(pop)
(pop)
(push)
(assert (not (le x3 java.util.Vector)))
(check-sat)
(pop)
(push)
(assert (le x3 weka.core.Queue_currencysign_QueueNode))
(check-sat)
(pop)
(push)
(assert (not (le x3 weka.core.Queue_currencysign_QueueNode)))
(check-sat)
(pop)
(push)
(assert (le x0 weka.core.Instances))
(check-sat)
(pop)
(push)
(assert (not (le x0 weka.core.Instances)))
(check-sat)
(pop)
(push)
(assert (le x2 weka.classifiers.trees.j48.Distribution))
(check-sat)
(pop)
(push)
(assert (not (le x2 weka.classifiers.trees.j48.Distribution)))
(check-sat)
(push)
(assert (le x0 weka.core.Instances))
(check-sat)
(pop)
(push)
(assert (not (le x0 weka.core.Instances)))
(check-sat)
(pop)
(pop)
(push)
(assert (le x3 weka.core.AttributeLocator))
(check-sat)
(pop)
(push)
(assert (not (le x3 weka.core.AttributeLocator)))
(check-sat)
(pop)
(push)
(assert (le x2 weka.classifiers.trees.j48.Distribution))
(check-sat)
(pop)
(push)
(assert (not (le x2 weka.classifiers.trees.j48.Distribution)))
(check-sat)
(pop)
(push)
(assert (le x2 weka.classifiers.trees.j48.Distribution))
(check-sat)
(pop)
(push)
(assert (not (le x2 weka.classifiers.trees.j48.Distribution)))
(check-sat)
(push)
(assert (le x1 weka.core.FastVector))
(check-sat)
(pop)
(push)
(assert (not (le x1 weka.core.FastVector)))
(check-sat)
(pop)
(pop)
(pop)
(push)
(assert (= x4 java.lang.StringBuffer))
(check-sat)
(pop)
(push)
(assert (not (= x4 java.lang.StringBuffer)))
(check-sat)
(pop)
(push)
(assert (= x1 java.lang.Boolean))
(check-sat)
(pop)
(push)
(assert (not (= x1 java.lang.Boolean)))
(check-sat)
(pop)
(push)
(assert (= x5 java.lang.String))
(check-sat)
(push)
(assert (le x7 weka.core.Instances))
(check-sat)
(pop)
(push)
(assert (not (le x7 weka.core.Instances)))
(check-sat)
(pop)
(pop)
(push)
(assert (not (= x5 java.lang.String)))
(check-sat)
(pop)
(push)
(assert (= x6 java.lang.String))
(check-sat)
(push)
(assert (= x6 java.lang.String))
(check-sat)
(push)
(assert (le x1 java.util.Vector))
(check-sat)
(pop)
(push)
(assert (not (le x1 java.util.Vector)))
(check-sat)
(pop)
(pop)
(push)
(assert (not (= x6 java.lang.String)))
(check-sat)
(pop)
(push)
(assert (le x4 java.util.Vector))
(check-sat)
(pop)
(push)
(assert (not (le x4 java.util.Vector)))
(check-sat)
(pop)
(push)
(assert (= x3 java.lang.String))
(check-sat)
(pop)
(push)
(assert (not (= x3 java.lang.String)))
(check-sat)
(pop)
(push)
(assert (= x4 java.lang.StringBuffer))
(check-sat)
(pop)
(push)
(assert (not (= x4 java.lang.StringBuffer)))
(check-sat)
(pop)
(push)
(assert (= x7 java.lang.StringBuilder))
(check-sat)
(push)
(assert (= x6 java.lang.String))
(check-sat)
(pop)
(push)
(assert (not (= x6 java.lang.String)))
(check-sat)
(pop)
(push)
(assert (= x6 java.lang.String))
(check-sat)
(pop)
(push)
(assert (not (= x6 java.lang.String)))
(check-sat)
(pop)
(pop)
(push)
(assert (not (= x7 java.lang.StringBuilder)))
(check-sat)
(push)
(assert (le x1 weka.core.Instance))
(check-sat)
(pop)
(push)
(assert (not (le x1 weka.core.Instance)))
(check-sat)
(pop)
(pop)
(push)
(assert (le x4 weka.core.Instances))
(check-sat)
(pop)
(push)
(assert (not (le x4 weka.core.Instances)))
(check-sat)
(push)
(assert (le x5 weka.core.Instances))
(check-sat)
(pop)
(push)
(assert (not (le x5 weka.core.Instances)))
(check-sat)
(pop)
(push)
(assert (le x2 weka.classifiers.trees.j48.Distribution))
(check-sat)
(pop)
(push)
(assert (not (le x2 weka.classifiers.trees.j48.Distribution)))
(check-sat)
(pop)
(pop)
(push)
(assert (le x2 weka.classifiers.trees.j48.Distribution))
(check-sat)
(pop)
(push)
(assert (not (le x2 weka.classifiers.trees.j48.Distribution)))
(check-sat)
(push)
(assert (= x6 java.lang.String))
(check-sat)
(pop)
(push)
(assert (not (= x6 java.lang.String)))
(check-sat)
(pop)
(pop)
(push)
(assert (= x6 java.lang.String))
(check-sat)
(pop)
(push)
(assert (not (= x6 java.lang.String)))
(check-sat)
(pop)
(pop)
(push)
(assert (not (= x6 java.lang.String)))
(check-sat)
(pop)
(push)
(assert (le x5 weka.core.AttributeLocator))
(check-sat)
(pop)
(push)
(assert (not (le x5 weka.core.AttributeLocator)))
(check-sat)
(pop)
(pop)
(push)
(assert (not (le x0 weka.core.Instances)))
(check-sat)
(push)
(assert (le x0 weka.core.Instances))
(check-sat)
(pop)
(push)
(assert (not (le x0 weka.core.Instances)))
(check-sat)
(push)
(assert (= x5 java.lang.String))
(check-sat)
(pop)
(push)
(assert (not (= x5 java.lang.String)))
(check-sat)
(pop)
(pop)
(pop)
(push)
(assert (le x2 weka.classifiers.trees.j48.Distribution))
(check-sat)
(pop)
(push)
(assert (not (le x2 weka.classifiers.trees.j48.Distribution)))
(check-sat)
(push)
(assert (le x0 java.util.Vector))
(check-sat)
(push)
(assert (le x4 java.lang.Object))
(check-sat)
(pop)
(push)
(assert (not (le x4 java.lang.Object)))
(check-sat)
(pop)
(push)
(assert (= x7 java.lang.String))
(check-sat)
(push)
(assert (= x7 java.lang.String))
(check-sat)
(pop)
(push)
(assert (not (= x7 java.lang.String)))
(check-sat)
(pop)
(pop)
(push)
(assert (not (= x7 java.lang.String)))
(check-sat)
(pop)
(pop)
(push)
(assert (not (le x0 java.util.Vector)))
(check-sat)
(pop)
(push)
(assert (le x2 weka.classifiers.trees.j48.Distribution))
(check-sat)
(pop)
(push)
(assert (not (le x2 weka.classifiers.trees.j48.Distribution)))
(check-sat)
(pop)
(push)
(assert (le x3 weka.core.FastVector))
(check-sat)
(pop)
(push)
(assert (not (le x3 weka.core.FastVector)))
(check-sat)
(pop)
(push)
(assert (= x0 java.lang.StringBuffer))
(check-sat)
(push)
(assert (le x5 weka.core.Instances))
(check-sat)
(pop)
(push)
(assert (not (le x5 weka.core.Instances)))
(check-sat)
(pop)
(pop)
(push)
(assert (not (= x0 java.lang.StringBuffer)))
(check-sat)
(push)
(assert (= x5 java.lang.String))
(check-sat)
(pop)
(push)
(assert (not (= x5 java.lang.String)))
(check-sat)
(pop)
(push)
(assert (le x4 java.util.HashSet))
(check-sat)
(pop)
(push)
(assert (not (le x4 java.util.HashSet)))
(check-sat)
(push)
(assert (= x0 java.lang.StringBuffer))
(check-sat)
(pop)
(push)
(assert (not (= x0 java.lang.StringBuffer)))
(check-sat)
(pop)
(pop)
(pop)
(push)
(assert (= x5 java.lang.StringBuilder))
(check-sat)
(pop)
(push)
(assert (not (= x5 java.lang.StringBuilder)))
(check-sat)
(pop)
(push)
(assert (le x1 weka.core.Instances))
(check-sat)
(pop)
(push)
(assert (not (le x1 weka.core.Instances)))
(check-sat)
(push)
(assert (= x5 java.lang.String))
(check-sat)
(pop)
(push)
(assert (not (= x5 java.lang.String)))
(check-sat)
(pop)
(push)
(assert (le x6 weka.core.Instance))
(check-sat)
(pop)
(push)
(assert (not (le x6 weka.core.Instance)))
(check-sat)
(pop)
(push)
(assert (le x0 weka.core.Instances))
(check-sat)
(pop)
(push)
(assert (not (le x0 weka.core.Instances)))
(check-sat)
(pop)
(push)
(assert (le x7 java.util.Vector))
(check-sat)
(push)
(assert (le x2 weka.classifiers.trees.j48.Distribution))
(check-sat)
(pop)
(push)
(assert (not (le x2 weka.classifiers.trees.j48.Distribution)))
(check-sat)
(pop)
(pop)
(push)
(assert (not (le x7 java.util.Vector)))
(check-sat)
(pop)
(pop)
(push)
(assert (le x4 weka.core.Instance))
(check-sat)
(push)
(assert (le x0 weka.core.Instances))
(check-sat)
(pop)
(push)
(assert (not (le x0 weka.core.Instances)))
(check-sat)
(pop)
(pop)
(push)
(assert (not (le x4 weka.core.Instance)))
(check-sat)
(push)
(assert (le x1 weka.core.Instances))
(check-sat)
(pop)
(push)
(assert (not (le x1 weka.core.Instances)))
(check-sat)
(pop)
(pop)
(push)
(assert (le x6 weka.core.Queue_currencysign_QueueNode))
(check-sat)
(pop)
(push)
(assert (not (le x6 weka.core.Queue_currencysign_QueueNode)))
(check-sat)
(pop)
(push)
(assert (le x2 weka.classifiers.trees.j48.Distribution))
(check-sat)
(pop)
(push)
(assert (not (le x2 weka.classifiers.trees.j48.Distribution)))
(check-sat)
(push)
(assert (le x5 java.util.Vector))
(check-sat)
(pop)
(push)
(assert (not (le x5 java.util.Vector)))
(check-sat)
(pop)
(push)
(assert (le x1 weka.core.ProtectedProperties))
(check-sat)
(pop)
(push)
(assert (not (le x1 weka.core.ProtectedProperties)))
(check-sat)
(pop)
(push)
(assert (le x6 java.util.Vector))
(check-sat)
(push)
(assert (le x0 weka.core.AttributeLocator))
(check-sat)
(pop)
(push)
(assert (not (le x0 weka.core.AttributeLocator)))
(check-sat)
(pop)
(pop)
(push)
(assert (not (le x6 java.util.Vector)))
(check-sat)
(pop)
(pop)
(push)
(assert (= x7 java.lang.String))
(check-sat)
(pop)
(push)
(assert (not (= x7 java.lang.String)))
(check-sat)
(pop)
(pop)
(push)
(assert (= x7 java.lang.Boolean))
(check-sat)
(push)
(assert (le x2 weka.classifiers.trees.j48.Distribution))
(check-sat)
(pop)
(push)
(assert (not (le x2 weka.classifiers.trees.j48.Distribution)))
(check-sat)
(pop)
(push)
(assert (le x4 weka.core.FastVector))
(check-sat)
(push)
(assert (le x4 weka.core.FastVector))
(check-sat)
(pop)
(push)
(assert (not (le x4 weka.core.FastVector)))
(check-sat)
(pop)
(pop)
(push)
(assert (not (le x4 weka.core.FastVector)))
(check-sat)
(pop)
(push)
(assert (= x7 java.lang.Boolean))
(check-sat)
(pop)
(push)
(assert (not (= x7 java.lang.Boolean)))
(check-sat)
(pop)
(pop)
(push)
(assert (not (= x7 java.lang.Boolean)))
(check-sat)
(push)
(assert (le x1 weka.core.Capabilities))
(check-sat)
(pop)
(push)
(assert (not (le x1 weka.core.Capabilities)))
(check-sat)
(push)
(assert (le x6 weka.core.Instances))
(check-sat)
(pop)
(push)
(assert (not (le x6 weka.core.Instances)))
(check-sat)
(pop)
(pop)
(push)
(assert (le x2 weka.classifiers.trees.j48.Distribution))
(check-sat)
(pop)
(push)
(assert (not (le x2 weka.classifiers.trees.j48.Distribution)))
(check-sat)
(pop)
(push)
(assert (le x6 weka.core.Queue_currencysign_QueueNode))
(check-sat)
(pop)
(push)
(assert (not (le x6 weka.core.Queue_currencysign_QueueNode)))
(check-sat)
(pop)
(push)
(assert (le x1 weka.core.Instances))
(check-sat)
(pop)
(push)
(assert (not (le x1 weka.core.Instances)))
(check-sat)
(pop)
(push)
(assert (= x3 java.lang.String))
(check-sat)
(push)
(assert (= x5 java.lang.String))
(check-sat)
(pop)
(push)
(assert (not (= x5 java.lang.String)))
(check-sat)
(pop)
(push)
(assert (le x5 weka.core.Instances))
(check-sat)
(pop)
(push)
(assert (not (le x5 weka.core.Instances)))
(check-sat)
(pop)
(pop)
(push)
(assert (not (= x3 java.lang.String)))
(check-sat)
(pop)
(push)
(assert (= x0 java.lang.StringBuilder))
(check-sat)
(push)
(assert (= x6 weka.classifiers.trees.m5.YongSplitInfo))
(check-sat)
(pop)
(push)
(assert (not (= x6 weka.classifiers.trees.m5.YongSplitInfo)))
(check-sat)
(pop)
(pop)
(push)
(assert (not (= x0 java.lang.StringBuilder)))
(check-sat)
(push)
(assert (= x1 java.lang.Boolean))
(check-sat)
(pop)
(push)
(assert (not (= x1 java.lang.Boolean)))
(check-sat)
(pop)
(push)
(assert (le x4 weka.core.Instance))
(check-sat)
(pop)
(push)
(assert (not (le x4 weka.core.Instance)))
(check-sat)
(pop)
(pop)
(push)
(assert (le x1 weka.core.ProtectedProperties))
(check-sat)
(push)
(assert (le x1 java.util.Properties))
(check-sat)
(pop)
(push)
(assert (not (le x1 java.util.Properties)))
(check-sat)
(pop)
(pop)
(push)
(assert (not (le x1 weka.core.ProtectedProperties)))
(check-sat)
(pop)
(push)
(assert (le x2 weka.classifiers.trees.j48.Distribution))
(check-sat)
(pop)
(push)
(assert (not (le x2 weka.classifiers.trees.j48.Distribution)))
(check-sat)
(push)
(assert (le x4 java.util.Vector))
(check-sat)
(pop)
(push)
(assert (not (le x4 java.util.Vector)))
(check-sat)
(pop)
(pop)
(pop)
(push)
(assert (= x5 java.lang.StringBuilder))
(check-sat)
(push)
(assert (= x4 java.lang.String))
(check-sat)
(pop)
(push)
(assert (not (= x4 java.lang.String)))
(check-sat)
(push)
(assert (le x3 weka.core.Instance))
(check-sat)
(pop)
(push)
(assert (not (le x3 weka.core.Instance)))
(check-sat)
(pop)
(push)
(assert (= x6 java.lang.String))
(check-sat)
(pop)
(push)
(assert (not (= x6 java.lang.String)))
(check-sat)
(pop)
(pop)
(push)
(assert (le x7 weka.core.Instances))
(check-sat)
(push)
(assert (le x3 java.util.Vector))
(check-sat)
(pop)
(push)
(assert (not (le x3 java.util.Vector)))
(check-sat)
(pop)
(pop)
(push)
(assert (not (le x7 weka.core.Instances)))
(check-sat)
(push)
(assert (le x6 weka.core.Instances))
(check-sat)
(pop)
(push)
(assert (not (le x6 weka.core.Instances)))
(check-sat)
(pop)
(pop)
(push)
(assert (le x4 weka.core.Instances))
(check-sat)
(pop)
(push)
(assert (not (le x4 weka.core.Instances)))
(check-sat)
(push)
(assert (le x7 weka.core.Instance))
(check-sat)
(pop)
(push)
(assert (not (le x7 weka.core.Instance)))
(check-sat)
(pop)
(push)
(assert (= x5 java.lang.StringBuilder))
(check-sat)
(push)
(assert (le x2 weka.classifiers.trees.j48.Distribution))
(check-sat)
(pop)
(push)
(assert (not (le x2 weka.classifiers.trees.j48.Distribution)))
(check-sat)
(pop)
(pop)
(push)
(assert (not (= x5 java.lang.StringBuilder)))
(check-sat)
(pop)
(push)
(assert (= x6 java.lang.String))
(check-sat)
(pop)
(push)
(assert (not (= x6 java.lang.String)))
(check-sat)
(pop)
(pop)
(push)
(assert (le x3 weka.core.Queue_currencysign_QueueNode))
(check-sat)
(pop)
(push)
(assert (not (le x3 weka.core.Queue_currencysign_QueueNode)))
(check-sat)
(push)
(assert (le x6 weka.core.AttributeLocator))
(check-sat)
(pop)
(push)
(assert (not (le x6 weka.core.AttributeLocator)))
(check-sat)
(pop)
(push)
(assert (le x3 weka.core.Queue_currencysign_QueueNode))
(check-sat)
(pop)
(push)
(assert (not (le x3 weka.core.Queue_currencysign_QueueNode)))
(check-sat)
(pop)
(push)
(assert (le x4 weka.core.AttributeLocator))
(check-sat)
(pop)
(push)
(assert (not (le x4 weka.core.AttributeLocator)))
(check-sat)
(push)
(assert (le x1 weka.core.Instance))
(check-sat)
(pop)
(push)
(assert (not (le x1 weka.core.Instance)))
(check-sat)
(pop)
(pop)
(pop)
(pop)
(push)
(assert (not (= x5 java.lang.StringBuilder)))
(check-sat)
(push)
(assert (= x5 java.lang.StringBuilder))
(check-sat)
(pop)
(push)
(assert (not (= x5 java.lang.StringBuilder)))
(check-sat)
(pop)
(push)
(assert (le x2 weka.classifiers.trees.j48.Distribution))
(check-sat)
(pop)
(push)
(assert (not (le x2 weka.classifiers.trees.j48.Distribution)))
(check-sat)
(pop)
(pop)
(push)
(assert (le x7 java.util.Vector))
(check-sat)
(push)
(assert (le x2 weka.classifiers.trees.j48.Distribution))
(check-sat)
(pop)
(push)
(assert (not (le x2 weka.classifiers.trees.j48.Distribution)))
(check-sat)
(push)
(assert (le x6 java.util.Vector))
(check-sat)
(push)
(assert (le x3 weka.core.Instance))
(check-sat)
(pop)
(push)
(assert (not (le x3 weka.core.Instance)))
(check-sat)
(pop)
(pop)
(push)
(assert (not (le x6 java.util.Vector)))
(check-sat)
(push)
(assert (le x2 weka.classifiers.trees.j48.Distribution))
(check-sat)
(pop)
(push)
(assert (not (le x2 weka.classifiers.trees.j48.Distribution)))
(check-sat)
(pop)
(pop)
(pop)
(pop)
(push)
(assert (not (le x7 java.util.Vector)))
(check-sat)
(pop)
(push)
(assert (le x5 weka.core.Instance))
(check-sat)
(push)
(assert (= x4 java.lang.String))
(check-sat)
(push)
(assert (= x4 java.lang.String))
(check-sat)
(pop)
(push)
(assert (not (= x4 java.lang.String)))
(check-sat)
(pop)
(push)
(assert (= x6 java.lang.Boolean))
(check-sat)
(push)
(assert (le x2 weka.classifiers.trees.j48.Distribution))
(check-sat)
(pop)
(push)
(assert (not (le x2 weka.classifiers.trees.j48.Distribution)))
(check-sat)
(pop)
(push)
(assert (le x1 java.lang.Object))
(check-sat)
(pop)
(push)
(assert (not (le x1 java.lang.Object)))
(check-sat)
(pop)
(pop)
(push)
(assert (not (= x6 java.lang.Boolean)))
(check-sat)
(pop)
(push)
(assert (le x6 weka.core.Instances))
(check-sat)
(pop)
(push)
(assert (not (le x6 weka.core.Instances)))
(check-sat)
(pop)
(pop)
(push)
(assert (not (= x4 java.lang.String)))
(check-sat)
(pop)
(push)
(assert (le x1 java.util.Vector))
(check-sat)
(pop)
(push)
(assert (not (le x1 java.util.Vector)))
(check-sat)
(push)
(assert (le x2 weka.classifiers.trees.j48.Distribution))
(check-sat)
(pop)
(push)
(assert (not (le x2 weka.classifiers.trees.j48.Distribution)))
(check-sat)
(pop)
(push)
(assert (= x4 java.lang.StringBuffer))
(check-sat)
(pop)
(push)
(assert (not (= x4 java.lang.StringBuffer)))
(check-sat)
(pop)
(push)
(assert (le x2 weka.classifiers.trees.j48.Distribution))
(check-sat)
(pop)
(push)
(assert (not (le x2 weka.classifiers.trees.j48.Distribution)))
(check-sat)
(pop)
(pop)
(push)
(assert (le x4 weka.core.Instances))
(check-sat)
(push)
(assert (= x3 java.lang.String))
(check-sat)
(push)
(assert (= x6 java.lang.String))
(check-sat)
(pop)
(push)
(assert (not (= x6 java.lang.String)))
(check-sat)
(pop)
(pop)
(push)
(assert (not (= x3 java.lang.String)))
(check-sat)
(pop)
(pop)
(push)
(assert (not (le x4 weka.core.Instances)))
(check-sat)
(pop)
(push)
(assert (le x4 weka.core.Instances))
(check-sat)
(pop)
(push)
(assert (not (le x4 weka.core.Instances)))
(check-sat)
(pop)
(push)
(assert (le x2 weka.classifiers.trees.j48.Distribution))
(check-sat)
(pop)
(push)
(assert (not (le x2 weka.classifiers.trees.j48.Distribution)))
(check-sat)
(pop)
(push)
(assert (= x1 java.lang.Double))
(check-sat)
(push)
(assert (le x6 weka.filters.unsupervised.attribute.ReplaceMissingValues))
(check-sat)
(push)
(assert (= x4 java.lang.Boolean))
(check-sat)
(pop)
(push)
(assert (not (= x4 java.lang.Boolean)))
(check-sat)
(pop)
(pop)
(push)
(assert (not (le x6 weka.filters.unsupervised.attribute.ReplaceMissingValues)))
(check-sat)
(push)
(assert (le x6 weka.filters.Filter))
(check-sat)
(pop)
(push)
(assert (not (le x6 weka.filters.Filter)))
(check-sat)
(pop)
(pop)
(push)
(assert (le x0 weka.core.Instances))
(check-sat)
(pop)
(push)
(assert (not (le x0 weka.core.Instances)))
(check-sat)
(push)
(assert (le x7 weka.core.Instances))
(check-sat)
(pop)
(push)
(assert (not (le x7 weka.core.Instances)))
(check-sat)
(pop)
(pop)
(push)
(assert (not (le x5 weka.core.SparseInstance)))
(check-sat)
(push)
(assert (le x5 weka.core.Instance))
(check-sat)
(pop)
(pop)
(push)
(assert (le x5 weka.core.SparseInstance))
(check-sat)
(pop)
(push)
(assert (= x7 weka.classifiers.trees.m5.YongSplitInfo))
(check-sat)
(pop)
(push)
(assert (not (= x7 weka.classifiers.trees.m5.YongSplitInfo)))
(check-sat)
(pop)
(push)
(assert (le x4 weka.core.Instances))
(check-sat)
(pop)
(push)
(assert (not (le x4 weka.core.Instances)))
(check-sat)
(push)
(assert (le x7 weka.core.AttributeLocator))
(check-sat)
(pop)
(push)
(assert (not (le x7 weka.core.AttributeLocator)))
(check-sat)
(pop)
(pop)
(pop)
(push)
(assert (not (= x1 java.lang.Double)))
(check-sat)
(pop)
(pop)
(push)
(assert (not (le x5 weka.core.Instance)))
(check-sat)
(pop)
(pop)
